# Objective value = 47
WA1n 0
WA1p 0
WA2n 1
WA2p 0
WB1n 0
WB1p 0
WB2n 1
WB2p 0
WC1n 0
WC1p 0
WC2n 1
WC2p 0
WD1n 1
WD1p 0
WD2n 1
WD2p 0
WE1n 0
WE1p 2
WF1n 0
WF1p 3
WF2n 0
WF2p 1
WG1n 5
WG1p 0
WG2n 1
WG2p 0
WH1n 9
WH1p 0
WI1n 0
WI1p 9
WT1n 0
WT1p 6
5 7
a 0
b 0
c 0
d 0
e 0
f 0
g 0
h 0
i 1
j 1
k 1
l 0
m 0
n 0
o 1
p 1
